results_rootrelaxation/bin024_050_015.srr.sol
solution status: optimal solution found
objective value:                                    0
_var4430_                           0.188505712833048 	(obj:0)
_var6977_                          0.0170826283017636 	(obj:0)
_var6998_                           0.251125936011829 	(obj:0)
_var7005_                           0.133411261718898 	(obj:0)
_var7008_                          0.0876769337219889 	(obj:0)
_var7013_                          0.0557150077523737 	(obj:0)
_var7016_                           0.207674274790868 	(obj:0)
_var7017_                           0.169994903795778 	(obj:0)
_var7018_                           0.150699065507815 	(obj:0)
_var7035_                           0.096954539329877 	(obj:0)
_var7045_                            0.24042620859093 	(obj:0)
_var7048_                           0.275348274157788 	(obj:0)
_var7053_                          0.0320605688852383 	(obj:0)
_var7057_                           0.188824364873226 	(obj:0)
_var7060_                           0.172120982386113 	(obj:0)
_var7064_                          0.0178286980412836 	(obj:0)
_var7068_                           0.208818155852177 	(obj:0)
_var7074_                          0.0294536421528964 	(obj:0)
_var7076_                          0.0693223790841831 	(obj:0)
_var7077_                           0.107543719319257 	(obj:0)
_var7078_                           0.240986552153307 	(obj:0)
_var7080_                          0.0398424666254666 	(obj:0)
_var7081_                           0.151035667744163 	(obj:0)
_var7083_                             0.1556718076692 	(obj:0)
_var7084_                          0.0380215509211556 	(obj:0)
_var7086_                          0.0789063130530782 	(obj:0)
_var7089_                          0.0402685712924247 	(obj:0)
_var7092_                           0.183140863659745 	(obj:0)
_var7097_                           0.226576181590939 	(obj:0)
_var7099_                           0.198218700515039 	(obj:0)
_var7100_                          0.0946980492439772 	(obj:0)
_var7103_                          0.0706118966769087 	(obj:0)
_var7105_                           0.110108277360871 	(obj:0)
_var7106_                           0.231935423315012 	(obj:0)
_var7107_                           0.016823274416646 	(obj:0)
_var7109_                          0.0784366945809963 	(obj:0)
_var7110_                          0.0135196033946081 	(obj:0)
_var7111_                           0.185725388301404 	(obj:0)
_var7114_                           0.189078011520613 	(obj:0)
_var7119_                           0.228480641395189 	(obj:0)
_var7121_                          0.0622885193197702 	(obj:0)
_var7122_                           0.162850673130504 	(obj:0)
_var7123_                          0.0263006462845403 	(obj:0)
_var7125_                           0.121948756968364 	(obj:0)
_var7126_                         0.00517279648096487 	(obj:0)
_var7128_                           0.166806879302487 	(obj:0)
_var7130_                          0.0690327329359885 	(obj:0)
_var7132_                          0.0090311906139443 	(obj:0)
_var7133_                           0.121458175921999 	(obj:0)
_var7138_                          0.0220851922703972 	(obj:0)
_var7139_                           0.122000208124699 	(obj:0)
_var7142_                           0.154402092444548 	(obj:0)
_var7143_                          0.0244688676582359 	(obj:0)
_var7144_                          0.0292762275215581 	(obj:0)
_var7145_                          0.0829048860091221 	(obj:0)
_var7146_                          0.0419240970539341 	(obj:0)
_var7149_                          0.0435573684956347 	(obj:0)
_var7151_                           0.186418733712535 	(obj:0)
_var7153_                          0.0891118855973203 	(obj:0)
_var7154_                           0.042201812121697 	(obj:0)
_var7155_                           0.172018286648827 	(obj:0)
_var7156_                           0.139313007372134 	(obj:0)
_var7157_                          0.0251991058659289 	(obj:0)
_var7158_                           0.102229706798992 	(obj:0)
_var7159_                          0.0155843309263471 	(obj:0)
_var7162_                          0.0348801009021907 	(obj:0)
_var7164_                          0.0880574458465483 	(obj:0)
_var7166_                          0.0355088709760663 	(obj:0)
_var7170_                         0.00831623556425316 	(obj:0)
_var7171_                          0.0981857948230009 	(obj:0)
_var7172_                           0.109022575025586 	(obj:0)
_var7173_                           0.205305001207251 	(obj:0)
_var7175_                           0.103324790522091 	(obj:0)
_var7176_                           0.249917132602988 	(obj:0)
_var7177_                          0.0879506388261861 	(obj:0)
_var7181_                          0.0637222352255487 	(obj:0)
_var7184_                          0.0370742843516031 	(obj:0)
_var7185_                         0.00567193586404744 	(obj:0)
_var7187_                           0.170991665786849 	(obj:0)
_var7189_                           0.109182599632795 	(obj:0)
_var7190_                          0.0585999460726717 	(obj:0)
_var7194_                           0.293521084043908 	(obj:0)
_var7197_                          0.0534834961665619 	(obj:0)
_var7198_                           0.033431593554593 	(obj:0)
_var7203_                           0.123587681863105 	(obj:0)
_var7204_                           0.133676321509437 	(obj:0)
_var7205_                          0.0863447379603556 	(obj:0)
_var7206_                           0.194776100248086 	(obj:0)
_var7208_                          0.0941764515549428 	(obj:0)
_var7216_                           0.352118454347666 	(obj:0)
_var7217_                           0.200706378224227 	(obj:0)
_var7218_                           0.140489041213298 	(obj:0)
_var7222_                          0.0227494015736362 	(obj:0)
_var7225_                          0.0691718840987138 	(obj:0)
_var7228_                           0.113058741718959 	(obj:0)
_var7236_                           0.161424628766151 	(obj:0)
_var7238_                          0.0333697254561122 	(obj:0)
_var7239_                         0.00946848806136062 	(obj:0)
_var7243_                          0.0740128250432957 	(obj:0)
_var7245_                          0.0167841554199919 	(obj:0)
_var7246_                           0.235095550105495 	(obj:0)
_var7247_                          0.0397246211798817 	(obj:0)
_var7248_                          0.0922050378521328 	(obj:0)
_var7249_                           0.232290992458561 	(obj:0)
_var7250_                           0.100697203322404 	(obj:0)
_var7253_                           0.115993503204531 	(obj:0)
_var7254_                          0.0679356446456883 	(obj:0)
_var7255_                          0.0869792112798577 	(obj:0)
_var7258_                           0.017358013611868 	(obj:0)
_var7259_                           0.120256753553398 	(obj:0)
_var7260_                          0.0513308253536074 	(obj:0)
_var7261_                          0.0646490100749482 	(obj:0)
_var7263_                          0.0441147112619744 	(obj:0)
_var7264_                           0.115869300490152 	(obj:0)
_var7265_                           0.170795727968698 	(obj:0)
_var7266_                          0.0136454086257027 	(obj:0)
_var7273_                          0.0387753937892136 	(obj:0)
_var7274_                          0.0329741756039129 	(obj:0)
_var7277_                           0.160238288736861 	(obj:0)
_var7279_                          0.0743816794525735 	(obj:0)
_var7280_                           0.152959728536181 	(obj:0)
_var7282_                          0.0372699824969897 	(obj:0)
_var7283_                          0.0684459188667521 	(obj:0)
_var7284_                           0.110561348139768 	(obj:0)
_var7285_                           0.126548376160076 	(obj:0)
_var7286_                           0.151868211232145 	(obj:0)
_var7288_                          0.0811576995375646 	(obj:0)
_var7289_                         0.00397413264586544 	(obj:0)
_var7290_                          0.0743896125533391 	(obj:0)
_var7293_                          0.0782164596958453 	(obj:0)
_var7297_                           0.008740962703219 	(obj:0)
_var7298_                           0.033324331186707 	(obj:0)
_var7302_                           0.107685848996241 	(obj:0)
_var7303_                          0.0729131428454612 	(obj:0)
_var7304_                           0.118851450643243 	(obj:0)
_var7312_                         0.00710717534753972 	(obj:0)
_var7313_                          0.0404334788857174 	(obj:0)
_var7314_                           0.221683344640408 	(obj:0)
_var7316_                          0.0483179992444919 	(obj:0)
_var7317_                           0.134883446633975 	(obj:0)
_var7318_                          0.0518217905611856 	(obj:0)
_var7319_                           0.145430731219832 	(obj:0)
_var7320_                          0.0327368616216147 	(obj:0)
_var7321_                          0.0119451029412912 	(obj:0)
_var7325_                          0.0595362305544291 	(obj:0)
_var7327_                          0.0492191475820606 	(obj:0)
_var7328_                         0.00185624572607294 	(obj:0)
_var7329_                           0.130009444484069 	(obj:0)
_var7330_                           0.074274242292657 	(obj:0)
_var7334_                         0.00886295407250171 	(obj:0)
_var7335_                           0.100292054490873 	(obj:0)
_var7337_                           0.158451335525878 	(obj:0)
_var7338_                           0.084588889170044 	(obj:0)
_var7339_                           0.108143257218539 	(obj:0)
_var7340_                          0.0150347378197706 	(obj:0)
_var7341_                          0.0108581115588082 	(obj:0)
_var7342_                         0.00255497935497941 	(obj:0)
_var7343_                         0.00954723271370712 	(obj:0)
_var7345_                          0.0933506952562156 	(obj:0)
_var7346_                          0.0918839442234727 	(obj:0)
_var7347_                          0.0770025738388973 	(obj:0)
_var7349_                            0.13324104537705 	(obj:0)
_var7350_                           0.136301092774534 	(obj:0)
_var7352_                          0.0521778565369891 	(obj:0)
_var7353_                          0.0797027137337994 	(obj:0)
_var7354_                          0.0757613246847405 	(obj:0)
_var7356_                          0.0893169933581241 	(obj:0)
_var7357_                          0.0242034983743054 	(obj:0)
_var7361_                          0.0392791758497396 	(obj:0)
_var7362_                           0.129466474192399 	(obj:0)
_var7363_                           0.081241350440039 	(obj:0)
_var7365_                          0.0279984368874809 	(obj:0)
_var7366_                         0.00150611368678338 	(obj:0)
_var7367_                          0.0317233816735327 	(obj:0)
_var7368_                          0.0333759629316987 	(obj:0)
_var7369_                           0.110166337716363 	(obj:0)
_var7372_                         0.00229531588634495 	(obj:0)
_var7373_                          0.0901398534301275 	(obj:0)
_var7374_                          0.0879894847192947 	(obj:0)
_var7375_                           0.107683873680778 	(obj:0)
_var7377_                          0.0232794873379846 	(obj:0)
_var7379_                          0.0547822920482129 	(obj:0)
_var7380_                          0.0619680397686357 	(obj:0)
_var7381_                         0.00892361065765435 	(obj:0)
_var7382_                          0.0182780949332206 	(obj:0)
_var7383_                         0.00674438282476926 	(obj:0)
_var7384_                          0.0136819629475672 	(obj:0)
_var7386_                            0.05012843002551 	(obj:0)
_var7387_                           0.174004567502302 	(obj:0)
_var7388_                           0.143781584876589 	(obj:0)
_var7389_                          0.0499579341960579 	(obj:0)
_var7391_                           0.111576768074013 	(obj:0)
_var7392_                          0.0437122874983648 	(obj:0)
_var7393_                           0.150505653600761 	(obj:0)
_var7394_                           0.159877244837192 	(obj:0)
_var7395_                          0.0984497328303507 	(obj:0)
_var7396_                         0.000195040520711398 	(obj:0)
_var7397_                           0.125898843444846 	(obj:0)
_var7399_                           0.108089707705957 	(obj:0)
_var7402_                          0.0524468829822873 	(obj:0)
_var7404_                           0.104672234342972 	(obj:0)
_var7405_                         5.15651271125237e-05 	(obj:0)
_var7407_                          0.0899746375862133 	(obj:0)
_var7412_                           0.246010175730446 	(obj:0)
_var7413_                          0.0418000839587611 	(obj:0)
_var7416_                          0.0556987000262047 	(obj:0)
_var7420_                          0.0875854998287665 	(obj:0)
_var7422_                           0.122403414024536 	(obj:0)
_var7423_                           0.122907976012141 	(obj:0)
_var7426_                           0.143828971187858 	(obj:0)
_var7428_                          0.0638844507925449 	(obj:0)
_var7431_                         0.00774910258317046 	(obj:0)
_var7434_                         0.00911512936911679 	(obj:0)
_var7440_                            0.18408606578026 	(obj:0)
_var7441_                          0.0666960320892413 	(obj:0)
_var7444_                          0.0330032510826761 	(obj:0)
_var7445_                          0.0106161739514902 	(obj:0)
_var7451_                           0.106478200261057 	(obj:0)
_var7452_                          0.0420624293567316 	(obj:0)
_var7453_                           0.161463309645763 	(obj:0)
_var7456_                          0.0588176758018686 	(obj:0)
_var7457_                          0.0806620058731629 	(obj:0)
_var7460_                           0.182265585411787 	(obj:0)
_var7461_                          0.0590826032850144 	(obj:0)
_var7462_                            0.12908241622269 	(obj:0)
_var7463_                         0.00949751650984782 	(obj:0)
_var7464_                          0.0730660405987125 	(obj:0)
_var7466_                          0.0390481557174335 	(obj:0)
_var7467_                         0.00294381985486258 	(obj:0)
_var7470_                          0.0896550634463809 	(obj:0)
_var7471_                         0.00626214323177819 	(obj:0)
_var7472_                          0.0182322895850276 	(obj:0)
_var7473_                          0.0878259220255853 	(obj:0)
_var7475_                          0.0464602244820234 	(obj:0)
_var7477_                          0.0734549920366814 	(obj:0)
_var7478_                          0.0551593671471142 	(obj:0)
_var7479_                          0.0656645767902979 	(obj:0)
_var7481_                          0.0604609198015975 	(obj:0)
_var7483_                         0.00419043253275996 	(obj:0)
_var7484_                          0.0557900903823167 	(obj:0)
_var7485_                          0.0653195523988935 	(obj:0)
_var7490_                         0.00904780251617798 	(obj:0)
_var7491_                           0.022991789738135 	(obj:0)
_var7492_                          0.0162446018944823 	(obj:0)
_var7494_                          0.0838018784983604 	(obj:0)
_var7496_                          0.0175072732032606 	(obj:0)
_var7499_                          0.0213252296167538 	(obj:0)
_var7502_                          0.0720301092965389 	(obj:0)
_var7503_                          0.0649544703131375 	(obj:0)
_var7505_                          0.0155710570441475 	(obj:0)
_var7506_                         0.00829453389909326 	(obj:0)
_var7507_                          0.0782807685186655 	(obj:0)
_var7508_                           0.117612398239472 	(obj:0)
_var7509_                          0.0686937728311009 	(obj:0)
_var7510_                          0.0174962279969214 	(obj:0)
_var7514_                          0.0151984292588977 	(obj:0)
_var7519_                         0.00950696932241855 	(obj:0)
_var7521_                          0.0183538487046185 	(obj:0)
_var7522_                          0.0167645193396725 	(obj:0)
_var7524_                          0.0593571957449046 	(obj:0)
_var7526_                          0.0461332301676874 	(obj:0)
_var7527_                          0.0173414988527384 	(obj:0)
_var7529_                           0.191569550106389 	(obj:0)
_var7530_                         0.00261585806689099 	(obj:0)
_var7532_                          0.0322052181148027 	(obj:0)
_var7534_                          0.0293339777076225 	(obj:0)
_var7538_                           0.024368503783989 	(obj:0)
_var7541_                          0.0376556112241186 	(obj:0)
_var7544_                         0.00380430099784523 	(obj:0)
_var7546_                         0.00653970515636737 	(obj:0)
_var7550_                          0.0746103784724472 	(obj:0)
_var7551_                          0.0325375669837547 	(obj:0)
_var7553_                          0.0735654804804747 	(obj:0)
_var7554_                           0.042451220235436 	(obj:0)
_var7555_                          0.0449873112901551 	(obj:0)
